param n := 120;
param c := 1000;
param : V : p w :=
   0	  28	 370
   1	  45	 286
   2	  43	 344
   3	  42	 362
   4	  54	 294
   5	  84	 344
   6	 100	 466
   7	  62	 263
   8	  71	 271
   9	  30	 485
  10	  50	 253
  11	  87	 262
  12	  42	 376
  13	  59	 304
  14	  32	 320
  15	  91	 413
  16	   2	 288
  17	  44	 299
  18	  98	 373
  19	  79	 277
  20	  62	 350
  21	  37	 426
  22	  75	 263
  23	  80	 311
  24	  57	 480
  25	  89	 255
  26	  16	 265
  27	  66	 381
  28	  63	 259
  29	  68	 360
  30	  77	 399
  31	  19	 272
  32	  15	 329
  33	  32	 429
  34	  53	 274
  35	  65	 297
  36	  88	 395
  37	  36	 258
  38	  59	 347
  39	  70	 463
  40	  42	 257
  41	   8	 280
  42	  35	 498
  43	  83	 250
  44	   1	 252
  45	  82	 412
  46	  59	 258
  47	  15	 330
  48	  48	 499
  49	  96	 250
  50	  62	 251
  51	  13	 458
  52	  40	 267
  53	  81	 275
  54	  35	 350
  55	  94	 283
  56	  76	 367
  57	  79	 434
  58	  18	 277
  59	  57	 289
  60	  51	 370
  61	  41	 273
  62	   8	 357
  63	  56	 495
  64	   7	 250
  65	  88	 255
  66	  47	 464
  67	  83	 254
  68	  56	 282
  69	  72	 361
  70	  60	 290
  71	  65	 349
  72	  50	 351
  73	  26	 251
  74	  87	 398
  75	  76	 370
  76	  30	 287
  77	   5	 343
  78	  22	 428
  79	  19	 257
  80	  25	 315
  81	  68	 445
  82	  67	 272
  83	  81	 283
  84	  44	 440
  85	  62	 254
  86	  88	 306
  87	  41	 435
  88	  46	 279
  89	  95	 286
  90	  99	 451
  91	  88	 268
  92	  96	 281
  93	  11	 430
  94	  46	 261
  95	  80	 309
  96	   5	 368
  97	  45	 274
  98	   8	 358
  99	   4	 427
 100	  25	 250
 101	  39	 323
 102	  29	 444
 103	  42	 270
 104	  92	 286
 105	  91	 494
 106	  69	 250
 107	  69	 256
 108	  30	 368
 109	  83	 300
 110	  29	 332
 111	  51	 491
 112	   6	 253
 113	  22	 256
 114	  90	 426
 115	  55	 274
 116	  12	 300
 117	  78	 495
 118	  64	 250
 119	  24	 255
;

set E :=
   0	  10
   0	  16
   0	  19
   0	  21
   0	  26
   0	  31
   0	  39
   0	  43
   0	  50
   0	  58
   0	  61
   0	  66
   0	  70
   0	  83
   0	  84
   0	  85
   0	  91
   0	 106
   0	 107
   0	 114
   1	   5
   1	   8
   1	  12
   1	  16
   1	  21
   1	  22
   1	  33
   1	  34
   1	  36
   1	  38
   1	  41
   1	  43
   1	  66
   1	  77
   1	  80
   1	  88
   1	  94
   1	  99
   1	 106
   1	 114
   2	   4
   2	   6
   2	   7
   2	   8
   2	  14
   2	  15
   2	  27
   2	  30
   2	  43
   2	  44
   2	  45
   2	  51
   2	  52
   2	  53
   2	  56
   2	  58
   2	  60
   2	  68
   2	  69
   2	  81
   2	  82
   2	  86
   2	 102
   3	   4
   3	   7
   3	  11
   3	  13
   3	  15
   3	  19
   3	  26
   3	  34
   3	  38
   3	  39
   3	  47
   3	  55
   3	  59
   3	  61
   3	  64
   3	  65
   3	  70
   3	  78
   3	  79
   3	  88
   3	  90
   3	  95
   3	  97
   3	  98
   3	 109
   3	 111
   3	 112
   3	 113
   4	   6
   4	  10
   4	  11
   4	  12
   4	  25
   4	  36
   4	  53
   4	  55
   4	  57
   4	  59
   4	  62
   4	  67
   4	  69
   4	  70
   4	  80
   4	  81
   4	  87
   4	  89
   4	  91
   4	  93
   4	 106
   4	 108
   4	 113
   4	 117
   5	  12
   5	  23
   5	  36
   5	  59
   5	  61
   5	  63
   5	  71
   5	  72
   5	  78
   5	  81
   5	  84
   5	  98
   5	 102
   5	 114
   6	   8
   6	  16
   6	  32
   6	  39
   6	  44
   6	  47
   6	  48
   6	  50
   6	  56
   6	  57
   6	  59
   6	  63
   6	  71
   6	  75
   6	  81
   6	  84
   6	  85
   6	  90
   6	  94
   6	 100
   6	 114
   6	 116
   6	 119
   7	  13
   7	  18
   7	  26
   7	  27
   7	  42
   7	  49
   7	  52
   7	  58
   7	  60
   7	  61
   7	  62
   7	  67
   7	  69
   7	  88
   7	  93
   7	  99
   7	 106
   7	 113
   7	 119
   8	   9
   8	  17
   8	  19
   8	  37
   8	  45
   8	  48
   8	  52
   8	  54
   8	  58
   8	  67
   8	  68
   8	  71
   8	  74
   8	  76
   8	  80
   8	  82
   8	  87
   8	 100
   8	 102
   8	 105
   8	 106
   8	 110
   8	 111
   8	 113
   9	  21
   9	  26
   9	  27
   9	  28
   9	  29
   9	  33
   9	  40
   9	  42
   9	  47
   9	  60
   9	  63
   9	  70
   9	  71
   9	  80
   9	  86
   9	  87
   9	  93
   9	  98
   9	  99
   9	 108
   9	 112
   9	 118
  10	  17
  10	  20
  10	  30
  10	  36
  10	  41
  10	  52
  10	  53
  10	  55
  10	  56
  10	  62
  10	  72
  10	  83
  10	  85
  10	  93
  10	  95
  10	  99
  10	 104
  10	 111
  10	 112
  10	 118
  11	  20
  11	  21
  11	  32
  11	  34
  11	  38
  11	  40
  11	  42
  11	  45
  11	  54
  11	  56
  11	  59
  11	  66
  11	  74
  11	  79
  11	  82
  11	  88
  11	 105
  11	 107
  11	 112
  12	  17
  12	  35
  12	  38
  12	  42
  12	  45
  12	  46
  12	  49
  12	  51
  12	  59
  12	  63
  12	  64
  12	  71
  12	  76
  12	  78
  12	  80
  12	  83
  12	  88
  12	  93
  12	  94
  12	 105
  12	 106
  12	 108
  12	 111
  12	 112
  12	 113
  12	 118
  12	 119
  13	  16
  13	  20
  13	  24
  13	  26
  13	  28
  13	  29
  13	  31
  13	  41
  13	  43
  13	  47
  13	  50
  13	  56
  13	  57
  13	  59
  13	  61
  13	  69
  13	  71
  13	  74
  13	  77
  13	  80
  13	  90
  13	  92
  13	  93
  13	 100
  13	 104
  13	 111
  13	 112
  13	 114
  13	 116
  13	 118
  14	  15
  14	  16
  14	  23
  14	  25
  14	  33
  14	  38
  14	  43
  14	  47
  14	  49
  14	  51
  14	  54
  14	  74
  14	  76
  14	  79
  14	  81
  14	  90
  14	  96
  14	  97
  14	 106
  14	 108
  14	 109
  14	 112
  15	  20
  15	  30
  15	  36
  15	  40
  15	  42
  15	  43
  15	  50
  15	  57
  15	  61
  15	  62
  15	  71
  15	  72
  15	  75
  15	  84
  15	  85
  15	 102
  15	 105
  15	 118
  15	 119
  16	  27
  16	  29
  16	  30
  16	  33
  16	  35
  16	  41
  16	  46
  16	  50
  16	  52
  16	  60
  16	  61
  16	  62
  16	  67
  16	  74
  16	  78
  16	  81
  16	  82
  16	 100
  16	 102
  16	 108
  16	 109
  17	  18
  17	  23
  17	  26
  17	  32
  17	  36
  17	  40
  17	  48
  17	  53
  17	  56
  17	  62
  17	  70
  17	  73
  17	  77
  17	  79
  17	  80
  17	  81
  17	  85
  17	  88
  17	  93
  17	  95
  17	 104
  17	 110
  17	 112
  17	 118
  18	  21
  18	  25
  18	  26
  18	  30
  18	  35
  18	  40
  18	  43
  18	  56
  18	  58
  18	  62
  18	  67
  18	  73
  18	  77
  18	  81
  18	  86
  18	  93
  18	  99
  18	 102
  18	 105
  18	 108
  18	 112
  18	 113
  18	 118
  19	  21
  19	  22
  19	  24
  19	  26
  19	  28
  19	  32
  19	  33
  19	  39
  19	  41
  19	  43
  19	  55
  19	  56
  19	  59
  19	  61
  19	  62
  19	  66
  19	  94
  19	  99
  19	 105
  19	 106
  19	 108
  19	 116
  20	  22
  20	  25
  20	  26
  20	  33
  20	  34
  20	  39
  20	  46
  20	  49
  20	  66
  20	  68
  20	  72
  20	  79
  20	  81
  20	  84
  20	 101
  20	 104
  20	 107
  20	 108
  21	  37
  21	  44
  21	  50
  21	  61
  21	  72
  21	  73
  21	  99
  21	 100
  21	 101
  21	 110
  21	 114
  22	  29
  22	  30
  22	  33
  22	  37
  22	  40
  22	  41
  22	  43
  22	  44
  22	  45
  22	  48
  22	  50
  22	  54
  22	  69
  22	  71
  22	  73
  22	  75
  22	  76
  22	  80
  22	  82
  22	 102
  22	 107
  22	 115
  22	 117
  22	 118
  23	  24
  23	  28
  23	  29
  23	  30
  23	  46
  23	  67
  23	  70
  23	  75
  23	  81
  23	  82
  23	  94
  23	 104
  23	 117
  24	  27
  24	  31
  24	  33
  24	  37
  24	  46
  24	  49
  24	  59
  24	  70
  24	  87
  24	  98
  24	  99
  24	 100
  24	 102
  24	 103
  24	 106
  24	 109
  24	 112
  24	 116
  25	  27
  25	  28
  25	  42
  25	  43
  25	  44
  25	  54
  25	  57
  25	  65
  25	  78
  25	  80
  25	  82
  25	  88
  25	  89
  25	  96
  25	 101
  25	 104
  25	 117
  26	  27
  26	  28
  26	  29
  26	  36
  26	  39
  26	  44
  26	  46
  26	  49
  26	  50
  26	  55
  26	  60
  26	  61
  26	  62
  26	  63
  26	  65
  26	  69
  26	  78
  26	  83
  26	 110
  26	 111
  26	 118
  27	  37
  27	  53
  27	  58
  27	  65
  27	  70
  27	  81
  27	  85
  27	  87
  27	  93
  27	  96
  27	 106
  27	 110
  27	 111
  28	  29
  28	  42
  28	  48
  28	  58
  28	  67
  28	  77
  28	  79
  28	  81
  28	  84
  28	  96
  28	 102
  28	 103
  28	 111
  28	 118
  29	  37
  29	  53
  29	  57
  29	  62
  29	  67
  29	  74
  29	  75
  29	  78
  29	  79
  29	  80
  29	  82
  29	  85
  29	  87
  29	  88
  29	  96
  29	 111
  30	  36
  30	  40
  30	  42
  30	  43
  30	  49
  30	  53
  30	  56
  30	  57
  30	  64
  30	  66
  30	  70
  30	  75
  30	  76
  30	  80
  30	  84
  30	  90
  30	  96
  30	 100
  30	 102
  30	 106
  30	 107
  30	 108
  30	 113
  30	 117
  31	  33
  31	  36
  31	  44
  31	  46
  31	  48
  31	  49
  31	  50
  31	  54
  31	  57
  31	  58
  31	  70
  31	  77
  31	  84
  31	  87
  31	  88
  31	 104
  31	 107
  31	 109
  31	 115
  31	 119
  32	  34
  32	  35
  32	  40
  32	  44
  32	  46
  32	  60
  32	  62
  32	  74
  32	  83
  32	  85
  32	  86
  32	  88
  32	  94
  32	 112
  32	 116
  32	 118
  33	  35
  33	  36
  33	  39
  33	  46
  33	  47
  33	  49
  33	  63
  33	  66
  33	  71
  33	  76
  33	  84
  33	  89
  33	  96
  33	 103
  33	 107
  33	 118
  34	  38
  34	  39
  34	  48
  34	  51
  34	  55
  34	  57
  34	  62
  34	  78
  34	  81
  34	  86
  34	  89
  34	  91
  34	 101
  34	 112
  34	 119
  35	  37
  35	  38
  35	  41
  35	  49
  35	  62
  35	  69
  35	  71
  35	  77
  35	  82
  35	  85
  35	  93
  35	  98
  35	 106
  35	 114
  35	 117
  35	 118
  35	 119
  36	  38
  36	  40
  36	  46
  36	  47
  36	  49
  36	  56
  36	  62
  36	  69
  36	  72
  36	  73
  36	  79
  36	  82
  36	  88
  36	  97
  36	  98
  36	 113
  37	  44
  37	  57
  37	  67
  37	  73
  37	  80
  37	  83
  37	  86
  37	  87
  37	  94
  37	  99
  37	 105
  37	 109
  37	 117
  37	 119
  38	  40
  38	  43
  38	  49
  38	  53
  38	  57
  38	  62
  38	  66
  38	  70
  38	  81
  38	  83
  38	  84
  38	  88
  38	  99
  38	 107
  38	 108
  38	 118
  38	 119
  39	  40
  39	  43
  39	  44
  39	  47
  39	  50
  39	  62
  39	  66
  39	  70
  39	  72
  39	  73
  39	  77
  39	  78
  39	  82
  39	  99
  39	 107
  39	 108
  39	 110
  39	 113
  39	 114
  39	 116
  40	  42
  40	  58
  40	  64
  40	  71
  40	  77
  40	  83
  40	  85
  40	  88
  40	  89
  40	  92
  40	  95
  40	 109
  40	 118
  41	  43
  41	  49
  41	  51
  41	  52
  41	  58
  41	  63
  41	  72
  41	  74
  41	  75
  41	  82
  41	  89
  41	  90
  41	  92
  41	  94
  41	 103
  41	 108
  41	 111
  42	  44
  42	  48
  42	  51
  42	  71
  42	  72
  42	  80
  42	  87
  42	  90
  42	  91
  42	 101
  42	 103
  42	 104
  42	 106
  42	 107
  42	 109
  42	 111
  42	 116
  42	 117
  42	 119
  43	  51
  43	  70
  43	  75
  43	  82
  43	  86
  43	  87
  44	  46
  44	  48
  44	  49
  44	  58
  44	  60
  44	  61
  44	  62
  44	  75
  44	  77
  44	  79
  44	  81
  44	  82
  44	  86
  44	  92
  44	 107
  44	 111
  44	 113
  45	  49
  45	  50
  45	  51
  45	  55
  45	  56
  45	  58
  45	  62
  45	  63
  45	  69
  45	  73
  45	  81
  45	  83
  45	  85
  45	  88
  45	  91
  45	  92
  45	  97
  45	 104
  45	 106
  45	 110
  45	 111
  45	 117
  45	 118
  46	  47
  46	  51
  46	  58
  46	  64
  46	  66
  46	  67
  46	  73
  46	  80
  46	  86
  46	  90
  46	  91
  46	  97
  46	 101
  46	 107
  46	 114
  47	  68
  47	  71
  47	  87
  47	  93
  47	  98
  47	 100
  48	  54
  48	  57
  48	  58
  48	  61
  48	  70
  48	  73
  48	  79
  48	  99
  48	 100
  48	 107
  48	 117
  48	 119
  49	  50
  49	  57
  49	  61
  49	  73
  49	  77
  49	  88
  49	  90
  49	  91
  49	  97
  49	  98
  49	 116
  49	 117
  49	 118
  50	  68
  50	  71
  50	  74
  50	  75
  50	  76
  50	  80
  50	  87
  50	  90
  50	  93
  50	 107
  50	 110
  50	 113
  50	 114
  51	  66
  51	  69
  51	  70
  51	  74
  51	  75
  51	  77
  51	  80
  51	  83
  51	  88
  51	  91
  51	  99
  51	 100
  52	  55
  52	  68
  52	  83
  52	  87
  52	  93
  52	  97
  52	 116
  53	  61
  53	  73
  53	  90
  53	  95
  53	 101
  53	 102
  53	 104
  53	 106
  53	 111
  53	 113
  53	 114
  53	 115
  54	  57
  54	  59
  54	  61
  54	  76
  54	  77
  54	  78
  54	  82
  54	  84
  54	  85
  54	  90
  54	  91
  54	 101
  54	 119
  55	  63
  55	  66
  55	  67
  55	  69
  55	  70
  55	  74
  55	  75
  55	  77
  55	  81
  55	  82
  55	  85
  55	  93
  55	  99
  55	 111
  55	 114
  55	 118
  55	 119
  56	  64
  56	  67
  56	  70
  56	  72
  56	  78
  56	  79
  56	  89
  56	  90
  56	  94
  56	  97
  56	 100
  56	 104
  56	 107
  56	 116
  57	  64
  57	  69
  57	  73
  57	  75
  57	  76
  57	  88
  57	  91
  57	 111
  57	 112
  57	 113
  57	 114
  57	 115
  57	 116
  58	  63
  58	  65
  58	  70
  58	  72
  58	  91
  58	  93
  58	  94
  58	 100
  58	 112
  58	 115
  58	 119
  59	  64
  59	  66
  59	  68
  59	  74
  59	  76
  59	  78
  59	  82
  59	  91
  59	  92
  59	  93
  59	  96
  59	  99
  59	 111
  59	 114
  59	 115
  59	 117
  60	  62
  60	  64
  60	  80
  60	  82
  60	 101
  60	 104
  60	 105
  60	 106
  60	 112
  60	 119
  61	  63
  61	  70
  61	  81
  61	  89
  61	  95
  61	 109
  61	 110
  61	 115
  61	 118
  62	  65
  62	  68
  62	  71
  62	  74
  62	  77
  62	  79
  62	  87
  62	  95
  62	  96
  62	  97
  62	 101
  62	 104
  62	 105
  62	 108
  62	 110
  62	 111
  62	 112
  62	 113
  62	 119
  63	  65
  63	  69
  63	  72
  63	  77
  63	  81
  63	  83
  63	  94
  63	  95
  63	  96
  63	 108
  63	 110
  63	 116
  63	 118
  64	  65
  64	  71
  64	  76
  64	  88
  64	  99
  64	 103
  64	 104
  64	 115
  64	 118
  65	  67
  65	  69
  65	  72
  65	  74
  65	  75
  65	  83
  65	  89
  65	  96
  65	 102
  65	 105
  65	 109
  65	 113
  65	 114
  65	 119
  66	  68
  66	  70
  66	  82
  66	  89
  66	  92
  66	  99
  66	 110
  67	  68
  67	  71
  67	  90
  67	 100
  67	 101
  67	 110
  68	  69
  68	  73
  68	  74
  68	  76
  68	  77
  68	  87
  68	  95
  68	 100
  68	 101
  68	 105
  68	 106
  68	 107
  68	 108
  68	 111
  68	 112
  68	 117
  69	  71
  69	  72
  69	  74
  69	  75
  69	  77
  69	  79
  69	  89
  69	 100
  69	 104
  69	 114
  70	  75
  70	  76
  70	  83
  70	  84
  70	  86
  70	  89
  70	  91
  70	  93
  70	  95
  70	 101
  70	 102
  70	 104
  70	 107
  70	 118
  71	  75
  71	  86
  71	  89
  71	  91
  71	  92
  71	  93
  71	  94
  71	  95
  71	  99
  71	 100
  71	 104
  71	 107
  71	 115
  72	  73
  72	  84
  72	  89
  72	  91
  72	  96
  72	 102
  72	 110
  72	 119
  73	  75
  73	  76
  73	  85
  73	 112
  73	 115
  73	 119
  74	  75
  74	  79
  74	  81
  74	  82
  74	 100
  74	 104
  74	 107
  74	 113
  74	 114
  74	 117
  74	 119
  75	  76
  75	  81
  75	  86
  75	  97
  75	  98
  75	 101
  75	 104
  75	 110
  75	 116
  75	 117
  76	  81
  76	  82
  76	  85
  76	  88
  76	  89
  76	  91
  76	  92
  76	  93
  76	  95
  76	  96
  76	 102
  76	 105
  76	 107
  76	 108
  76	 112
  76	 117
  77	  84
  77	  87
  77	  89
  77	  97
  77	  99
  77	 100
  77	 101
  77	 102
  77	 103
  77	 106
  77	 109
  77	 111
  78	  82
  78	  98
  78	 102
  78	 105
  78	 106
  78	 110
  78	 111
  78	 119
  79	  83
  79	  85
  79	  86
  79	  87
  79	  92
  79	  98
  79	 102
  79	 107
  79	 110
  79	 117
  80	  85
  80	  90
  80	  92
  80	  98
  80	 106
  80	 107
  80	 110
  81	  82
  81	  83
  81	  85
  81	  91
  81	  93
  81	  94
  81	  98
  81	 105
  81	 111
  81	 115
  81	 118
  82	  95
  82	  96
  82	  97
  82	 103
  82	 105
  82	 119
  83	  85
  83	  91
  83	  93
  83	  99
  83	 100
  83	 115
  83	 116
  84	  86
  84	  87
  84	  95
  84	  97
  84	  99
  84	 107
  84	 114
  84	 118
  84	 119
  85	  93
  85	  94
  85	 102
  85	 105
  85	 109
  85	 116
  85	 118
  86	  90
  86	  93
  86	  95
  86	  96
  86	 100
  86	 104
  86	 105
  86	 106
  86	 107
  86	 108
  86	 111
  86	 117
  86	 119
  87	  88
  87	  90
  87	  93
  87	  94
  87	  98
  87	 102
  87	 109
  87	 114
  88	  96
  88	 100
  88	 108
  88	 109
  88	 110
  88	 115
  89	  92
  89	  94
  89	  95
  89	 102
  89	 103
  89	 106
  89	 111
  89	 115
  90	  91
  90	  93
  90	  97
  90	  98
  90	 107
  90	 111
  90	 117
  91	  93
  91	  99
  91	 100
  91	 113
  91	 116
  91	 117
  92	  98
  92	 107
  92	 108
  93	  97
  93	 106
  93	 115
  94	  95
  94	 103
  94	 106
  94	 108
  94	 110
  94	 111
  95	  97
  95	  98
  95	 106
  95	 110
  96	 102
  96	 103
  96	 109
  96	 111
  96	 114
  97	  99
  97	 107
  98	  99
  98	 101
  98	 112
  98	 113
  99	 114
 100	 105
 100	 108
 100	 109
 100	 111
 100	 116
 101	 102
 101	 107
 101	 109
 101	 110
 102	 109
 102	 110
 102	 111
 102	 118
 103	 104
 103	 106
 103	 110
 103	 112
 103	 118
 103	 119
 104	 117
 105	 107
 105	 110
 105	 112
 105	 119
 106	 109
 106	 110
 106	 112
 106	 115
 106	 117
 108	 109
 108	 113
 108	 115
 109	 113
 110	 114
 110	 117
 111	 114
 111	 115
 111	 116
 111	 117
 112	 118
 113	 119
 114	 119
 117	 119
;
